p edge 60 240
e 1 6
e 1 29
e 1 43
e 1 47
e 2 4
e 2 8
e 2 17
e 2 37
e 3 9
e 3 27
e 3 38
e 3 50
e 4 11
e 4 18
e 4 44
e 4 51
e 5 6
e 5 10
e 5 51
e 5 56
e 6 3
e 6 20
e 6 31
e 6 38
e 7 18
e 7 25
e 7 26
e 7 40
e 8 24
e 8 45
e 8 50
e 8 54
e 9 4
e 9 4
e 9 43
e 9 60
e 10 12
e 10 18
e 10 21
e 10 57
e 11 4
e 11 18
e 11 43
e 11 46
e 12 2
e 12 21
e 12 25
e 12 57
e 13 2
e 13 26
e 13 28
e 13 50
e 14 16
e 14 19
e 14 29
e 14 52
e 15 16
e 15 19
e 15 22
e 15 59
e 16 18
e 16 49
e 16 59
e 16 60
e 17 30
e 17 43
e 17 53
e 17 58
e 18 5
e 18 24
e 18 47
e 18 52
e 19 23
e 19 35
e 19 43
e 19 58
e 20 4
e 20 15
e 20 17
e 20 26
e 21 11
e 21 13
e 21 30
e 21 60
e 22 7
e 22 9
e 22 15
e 22 26
e 23 9
e 23 15
e 23 30
e 23 33
e 24 2
e 24 22
e 24 23
e 24 53
e 25 11
e 25 12
e 25 21
e 25 34
e 26 6
e 26 11
e 26 36
e 26 51
e 27 32
e 27 46
e 27 47
e 27 49
e 28 18
e 28 40
e 28 43
e 28 58
e 29 22
e 29 33
e 29 33
e 29 41
e 30 17
e 30 32
e 30 47
e 30 50
e 31 19
e 31 21
e 31 30
e 31 57
e 32 15
e 32 26
e 32 47
e 32 56
e 33 1
e 33 16
e 33 20
e 33 26
e 34 12
e 34 22
e 34 27
e 34 42
e 35 22
e 35 33
e 35 39
e 35 39
e 36 4
e 36 7
e 36 31
e 36 35
e 37 44
e 37 52
e 37 52
e 37 59
e 38 8
e 38 11
e 38 23
e 38 55
e 39 37
e 39 40
e 39 49
e 39 53
e 40 25
e 40 30
e 40 45
e 40 46
e 41 6
e 41 12
e 41 19
e 41 40
e 42 37
e 42 52
e 42 57
e 42 60
e 43 10
e 43 22
e 43 52
e 43 55
e 44 5
e 44 13
e 44 14
e 44 41
e 45 14
e 45 17
e 45 19
e 45 29
e 46 4
e 46 17
e 46 30
e 46 54
e 47 2
e 47 8
e 47 34
e 47 45
e 48 9
e 48 10
e 48 12
e 48 25
e 49 40
e 49 41
e 49 48
e 49 55
e 50 10
e 50 16
e 50 19
e 50 36
e 51 22
e 51 38
e 51 41
e 51 60
e 52 6
e 52 7
e 52 22
e 52 38
e 53 2
e 53 8
e 53 51
e 53 57
e 54 14
e 54 26
e 54 31
e 54 41
e 55 1
e 55 30
e 55 37
e 55 42
e 56 6
e 56 41
e 56 58
e 56 60
e 57 9
e 57 25
e 57 27
e 57 58
e 58 2
e 58 7
e 58 11
e 58 49
e 59 1
e 59 2
e 59 3
e 59 20
e 60 12
e 60 18
e 60 35
e 60 42
